2086742107094755277505,6,1,2,05,15,1,2,02,11,1,2,03,14,1,2,01,5,1,2,010,9,1,2,014,8,1,2,03,5,1,2,014,4,1,2,015,13,1,2,013,12,1,2,03,8,1,2,08,15,1,2,010,2,1,2,015,13,1,2,06,11,1,2,04,4,1,2,012,8,1,2,03,5,1,2,010,2,1,2,07,4,1,2,03,8,1,2,013,1,1,2,03,15,1,2,07,12,1,2,015,3,1,2,04,5,1,2,012,5,1,2,04,5,1,2,012,11,1,2,011,14,1,2,06,12,1,2,014,2,1,2,07,9,1,2,014,12,1,2,014,1,1,2,01,8,1,2,010,14,1,2,010,14,1,2,08,1,1,2,01,9,1,2,01,7,1,2,010,6,1,2,012,2,1,2,011,5,1,2,03,15,1,2,03,3,1,2,012,4,1,2,02,6,1,2,03,3,1,2,0